BEGIN IONS
PEPMASS=349.20095
CHARGE=1+
FILENAME=PMA_065444
UNPD_ID=UNPD159661
MOLECULAR_FORMULA=C20H28O5
SEQ=*..*
IONMODE=Positive
EXACTMASS=348.193674
NAME=UNPD159661
SMILES=CC1C(O)C2(O)C(C3C=C(CO)CC4=C(C=C(C)C4O)C13O)C2(C)C
INCHI=InChI=1/C20H28O5/c1-9-5-13-12(15(9)22)6-11(8-21)7-14-16-18(3,4)20(16,25)17(23)10(2)19(13,14)24/h5,7,10,14-17,21-25H,6,8H2,1-4H3/t10-,14+,15+,16-,17-,19+,20-/m1/s1
INCHIKEY=CECQLSSRZIBODZ-MFYSWCGQSA-N
SCANS=1/.*/
93.07042529 0.1721895631
95.04968984 0.2055541692
107.0496898 0.3517217264
109.0653399 0.7990951972
141.0915547 0.2428717614
147.08099 0.1983133304
163.0759046 0.2772766459
165.0915547 0.2138327979
199.1334195 0.2266414054
271.1334195 0.4467687007
273.1490695 0.453566425
289.1439842 0.603365659
291.1596342 0.8165484288
293.1752843 0.2381896901
295.1909343 0.190602914
299.1647196 1.024977611
301.1803697 0.4096806053
305.1752843 0.4530712565
307.1909343 0.1661152974
313.1803697 25.81086843
315.1596342 0.363736198
315.1596342 0.2086211951
317.1752843 0.7486469918
319.1545488 0.533269375
319.1909343 0.6334818748
321.1701989 0.5650030571
323.185849 0.5952336891
331.1909343 41.19752561
331.1909343 1.484041337
333.1701989 0.3957317926
349.201499 19.97345726
41.03912516 0.8087251542
85.06533991 0.5455379625
95.04968984 0.4479315358
107.0496898 0.4246906097
109.0653399 0.940958824
143.1072047 0.5688016668
147.08099 1.148342354
163.0759046 0.7891334095
165.0915547 0.6577399936
187.0759046 0.4533694304
259.1334195 1.706102891
261.1490695 0.5332527875
271.1334195 3.409895162
273.1490695 1.570807549
275.1283341 1.426401788
275.1647196 2.562181851
277.1439842 0.4641393593
277.1803697 0.5523075808
279.1596342 0.5249912699
289.1439842 4.086835202
291.1596342 1.504306021
293.1752843 1.909091345
299.1647196 1.990321482
301.1803697 1.585168637
313.1803697 32.71795505
315.1596342 0.8369890601
317.1752843 0.9082940397
319.1909343 1.403743522
331.1909343 26.08132998
331.1909343 0.991926901
349.201499 6.448727579
51.0234751 3.32753245
53.03912516 2.567047121
57.07042529 2.221750186
71.04968984 2.248179447
77.03912516 1.829006615
79.05477522 1.902007135
81.03403978 1.488314872
85.06533991 4.089250476
93.07042529 2.589824254
95.08607535 1.408259117
97.10172542 1.599446795
107.0496898 4.795800588
109.0653399 4.672398189
131.0496898 1.621699342
133.0653399 1.700097586
135.08099 2.638009055
147.08099 1.983689935
179.1072047 2.803534357
187.0759046 2.322809554
215.1072047 1.848992754
271.1334195 5.728535325
273.1490695 4.171313984
275.1283341 1.332100572
275.1647196 1.387125377
289.1803697 1.461952458
299.1647196 5.057171664
301.1803697 4.111853163
313.1803697 20.88182622
315.1596342 2.067643934
315.1596342 1.422236985
331.1909343 2.720590489
END IONS
BEGIN IONS
PEPMASS=649.321853
CHARGE=1+
FILENAME=PMA_065445
UNPD_ID=UNPD159662
MOLECULAR_FORMULA=C34H48O12
SEQ=*..*
IONMODE=Positive
EXACTMASS=648.314577
NAME=UNPD159662
SMILES=CCCCCCCC(=O)OC1C(O)C(OC(=O)C)C2(C)C(CC3OC3(C)C2C(OC(=O)C)C4=C(C)C(=O)OC4C=C/1C)OC(=O)C
INCHI=InChI=1/C34H48O12/c1-9-10-11-12-13-14-25(38)45-28-17(2)15-22-26(18(3)32(40)44-22)29(42-20(5)36)30-33(7,31(27(28)39)43-21(6)37)23(41-19(4)35)16-24-34(30,8)46-24/h15,22-24,27-31,39H,9-14,16H2,1-8H3/b17-15-/t22-,23-,24-,27+,28-,29-,30+,31-,33-,34-/m0/s1
INCHIKEY=UVMUFJRGIMSQGZ-FQAPTSTFSA-N
SCANS=1
43.01838972 1.139114154
85.10172542 1.665147809
109.1017254 1.238019157
125.09664 1.082500395
127.1122901 9.875264953
443.1705928 1.094231865
445.1862429 0.8702441393
445.1862429 1.102821985
447.201893 1.057273498
461.1811575 1.618680516
463.1968076 3.816282097
479.1917222 1.778516188
503.1917222 1.051862335
505.2073723 4.617193552
523.2179369 2.818310311
529.2801433 1.352331122
545.2750579 1.774704348
547.290708 3.110120789
563.2856226 1.910953676
571.290708 0.8994484018
573.2699725 1.480849099
575.2856226 4.219212702
577.3012726 1.12948886
587.2856226 2.857324897
589.3012726 11.57962644
589.3012726 1.205922612
603.3169227 1.090399503
605.3325728 1.140985708
607.3118373 13.77660093
631.3118373 7.396485415
649.322402 10.25008255
85.10172542 3.434555989
99.11737548 2.185815411
109.1017254 1.999236854
127.1122901 14.91653386
319.1545488 1.622226642
393.1913283 1.886793248
395.2069783 1.521074724
435.201893 1.463958049
447.201893 1.419710148
451.1968076 4.44844847
453.2124576 1.837891944
463.1968076 6.941749787
465.2124576 1.896414117
479.1917222 3.161018132
481.2073723 4.125726376
505.2073723 2.526538733
519.2957933 1.642604554
523.2179369 1.824635945
537.306358 2.810901773
547.290708 4.762050939
559.290708 1.769844555
563.2856226 1.659250145
565.3012726 3.768219362
571.290708 2.236630847
575.2856226 3.138258413
577.3012726 1.620335168
579.3169227 2.15116456
587.2856226 2.138131637
589.3012726 6.909568813
607.3118373 3.928640709
631.3118373 4.252070099
41.03912516 4.922291659
43.01838972 2.811854722
43.05477522 5.065377842
55.05477522 1.514157118
57.07042529 1.927989674
71.08607535 1.682115862
81.07042529 1.525864655
85.10172542 1.783357756
91.07590459 1.58927415
127.1122901 5.859107898
443.1705928 2.864880679
445.1862429 1.509340251
445.1862429 1.928094086
447.201893 1.918431243
451.1968076 3.327076109
461.1811575 2.60155281
463.1968076 11.74142222
479.1917222 7.729608653
503.1917222 1.72436702
507.2230223 2.377601147
521.2022869 1.819694806
529.2801433 2.284313725
545.2750579 2.328286385
547.290708 7.121609437
563.2856226 4.688773183
575.2856226 1.760409828
587.2856226 4.830626984
589.3012726 1.548946974
605.2961873 1.914248824
605.3325728 1.792920632
631.3118373 3.506403664
END IONS
BEGIN IONS
PEPMASS=375.2529856
CHARGE=1+
FILENAME=PMA_065447
UNPD_ID=UNPD159664
MOLECULAR_FORMULA=C23H34O4
SEQ=*..*
IONMODE=Positive
EXACTMASS=374.2457096
NAME=UNPD159664
SMILES=COC(=O)C1(C)CCCC2(C)C3CC(OC(=O)C)C(=CC3=CCC12)C(C)C
INCHI=InChI=1/C23H34O4/c1-14(2)17-12-16-8-9-20-22(4,18(16)13-19(17)27-15(3)24)10-7-11-23(20,5)21(25)26-6/h8,12,14,18-20H,7,9-11,13H2,1-6H3/t18-,19-,20-,22+,23+/m0/s1
INCHIKEY=KTQALDLKCGBREQ-GHIJRLNRSA-N
SCANS=1
43.01838972 2.165617743
61.0289544 0.8121933414
69.07042529 0.9053545593
169.1228548 0.5487610971
179.1072047 0.6327075086
181.1228548 0.8221381475
183.1385048 1.032581326
191.1072047 0.5565627498
193.1228548 0.9374364525
195.1385048 0.6516574904
235.169805 1.185685427
247.169805 1.105636179
255.2112759 0.8786462918
271.169805 0.6072531941
271.2061905 1.294426088
283.2061905 0.8176484337
287.2011051 1.015879386
301.2167552 1.257032444
313.2167552 2.270352073
315.2324052 12.86142889
317.2116698 0.8499400827
325.2167552 0.8781337024
333.2065844 1.301861316
333.2429699 15.25497018
343.2273199 10.96793159
345.2429699 1.497454772
347.2222345 0.5650534773
357.2429699 1.213511481
357.2429699 1.721251267
359.2222345 1.165123875
375.2535346 32.22576943
43.01838972 2.244542102
43.05477522 1.837774876
57.07042529 2.343984711
67.05477522 1.544270887
69.07042529 2.532849872
181.1228548 1.879026089
183.1385048 1.872877958
191.1072047 2.18480729
193.1228548 2.598049597
219.1385048 1.896788137
221.1541549 1.747907694
235.169805 1.771799888
245.1541549 3.679448066
247.169805 3.125404582
255.2112759 3.359905142
271.169805 2.681926085
271.2061905 2.553812785
273.185455 2.51870879
275.2011051 2.256064742
285.2218405 1.727580624
287.2011051 1.591860025
291.1960197 1.8077818
301.2167552 2.544884427
313.2167552 3.218593058
315.2324052 16.89774317
333.2065844 2.504799991
333.2429699 10.13996991
343.2273199 4.967935377
357.2429699 2.231515163
357.2429699 1.551071807
375.2535346 6.18631535
43.01838972 1.975094994
51.0234751 1.824637913
57.07042529 2.907902957
67.05477522 2.799848258
69.07042529 2.901488592
119.0860754 2.927287861
135.1173755 1.922824544
137.09664 2.00488324
173.1330255 2.330405903
181.1228548 2.057033136
185.1330255 5.228957365
187.1486756 6.017390712
189.1279402 1.899338959
191.1072047 2.269990727
203.1435902 3.28531227
243.1385048 2.275424371
245.1541549 2.494676741
247.169805 1.83435383
253.1956258 3.220084759
255.2112759 5.432477399
259.169805 2.795252327
271.169805 2.380464099
271.2061905 11.61957354
273.185455 3.687388417
273.2218405 3.746619699
287.2011051 4.386080897
289.2167552 2.357247757
299.2011051 1.877739544
301.2167552 3.507452902
313.2167552 3.02415656
359.2222345 3.008609729
END IONS
BEGIN IONS
PEPMASS=317.1230936
CHARGE=1+
FILENAME=PMA_065448
UNPD_ID=UNPD159665
MOLECULAR_FORMULA=C14H20O8
SEQ=*..*
IONMODE=Positive
EXACTMASS=316.1158176
NAME=UNPD159665
SMILES=OCC1OC(OCCC2(O)C=CC(=O)C=C2)C(O)C(O)C1O
INCHI=InChI=1/C14H20O8/c15-7-9-10(17)11(18)12(19)13(22-9)21-6-5-14(20)3-1-8(16)2-4-14/h1-4,9-13,15,17-20H,5-7H2/t9-,10-,11+,12-,13-/m0/s1
INCHIKEY=VTVARPTUBCBNJX-WJTVCTBASA-N
SCANS=1
43.01838972 0.8973016429
55.01838972 0.5904438951
69.03403978 0.5188406936
73.0289544 0.8046411076
79.01838972 0.5396806923
81.03403978 0.8678739801
103.0395191 1.060998132
109.0289544 8.998270189
111.0446045 1.589192118
113.0602545 0.8074808301
115.0759046 0.8894126447
117.0915547 0.8894126447
119.0496898 0.8318876992
133.0500838 0.5561330369
137.0602545 11.76629741
139.0759046 0.8081787231
145.0500838 0.6639908392
155.0708192 4.631231182
161.0449984 0.521584302
163.0606485 4.018697624
175.0606485 0.6184481023
181.0712131 0.5060959882
193.0712131 2.186993573
255.0868632 0.5135555388
275.1130779 1.001891703
281.1025133 4.221944142
285.0974279 0.5331343853
287.1130779 0.5250625065
299.1130779 23.3045075
299.1130779 0.6353443619
317.1236426 23.70147281
43.01838972 2.528178729
45.03403978 1.224190348
47.04968984 0.5980451104
55.01838972 2.52998358
69.03403978 0.7224014304
79.01838972 1.087903472
81.03403978 1.563238136
83.04968984 0.8355221774
109.0289544 14.12785746
111.0446045 2.52226261
113.0602545 0.7991099359
115.0759046 0.6916512978
117.0915547 0.6916512978
119.0496898 1.741782653
121.0653399 0.6990471904
135.0446045 0.689141526
137.0602545 27.83083817
139.0759046 1.011888282
145.0500838 3.788770156
155.0708192 13.22686278
163.0606485 5.742982442
175.0606485 0.7825630876
181.0712131 0.5927771165
193.0712131 0.8609099318
195.0657338 0.5884184313
207.0868632 0.6294404113
261.0974279 0.5899829574
281.1025133 2.985222716
287.1130779 0.6156130528
299.1130779 5.281298495
317.1236426 2.420465014
43.01838972 10.57374018
45.03403978 2.845048802
55.01838972 5.609289015
57.03403978 1.497845994
59.01330434 1.883532782
71.01330434 2.101938557
73.0289544 3.684727595
79.01838972 4.662996996
81.03403978 5.464007205
83.04968984 1.44317648
87.00821896 1.622734584
89.02386902 1.428954738
95.04968984 1.512691488
103.0395191 1.675494331
109.0289544 6.77997547
111.0446045 1.45481752
119.0496898 3.861658591
137.0602545 11.92155802
139.0759046 1.490371328
145.0500838 2.17088473
147.0657338 3.779249761
155.0708192 1.764427546
163.0606485 3.162858273
173.0449984 2.21488949
175.0606485 3.226096256
225.0762985 1.920991657
227.0919486 2.698854241
255.0868632 2.22733558
257.1025133 1.561162671
281.1025133 2.355041181
287.1130779 1.403648936
END IONS
BEGIN IONS
PEPMASS=255.2318562
CHARGE=1+
FILENAME=PMA_065449
UNPD_ID=UNPD159666
MOLECULAR_FORMULA=C16H30O2
SEQ=*..*
IONMODE=Positive
EXACTMASS=254.2245802
NAME=UNPD159666
SMILES=CCCCCCC=C/CCCCCCOC(=O)C
INCHI=InChI=1/C16H30O2/c1-3-4-5-6-7-8-9-10-11-12-13-14-15-18-16(2)17/h8-9H,3-7,10-15H2,1-2H3/b9-8-
INCHIKEY=UEZQOSGCHCNWOE-HJWRWDBZSA-N
SCANS=1
43.01838972 4.690475813
43.05477522 0.762441597
57.07042529 0.7472098975
61.0289544 1.145286216
71.08607535 0.7245731505
85.10172542 0.7232018284
97.10172542 1.368959066
99.11737548 0.9095317335
101.0602545 0.572795818
111.1173755 0.7324936025
125.1330255 0.7378406524
129.0915547 0.5730085285
139.1486756 0.7462827013
143.1072047 0.580013265
153.1643257 0.7462827013
155.1072047 1.219020401
157.1228548 0.8491321712
165.1643257 0.8401951857
167.1799757 1.346793904
169.1228548 0.5855188151
181.1956258 0.5687546799
183.1385048 0.5992750423
193.1956258 1.863673463
195.2112759 15.33332064
197.1541549 0.6152568401
211.169805 0.6152568401
213.2218405 5.468102816
225.185455 0.6648307316
227.2011051 0.7006015823
237.2218405 2.204856747
255.2324052 50.76501357
41.03912516 2.111690155
43.01838972 2.493699007
43.05477522 2.831439328
53.03912516 1.518805035
55.05477522 2.043412234
57.07042529 2.624645395
61.0289544 2.761721083
67.05477522 1.398256442
69.07042529 1.654316511
71.08607535 2.449019125
81.07042529 1.483127543
83.08607535 1.612174288
85.10172542 2.349922563
95.08607535 3.314293013
97.10172542 3.362612482
99.11737548 1.323149662
109.1017254 2.191123448
111.1173755 2.062164454
123.1173755 2.288942475
125.1330255 2.123649443
137.1330255 2.314101949
139.1486756 2.311234499
151.1486756 2.243852994
153.1643257 2.311234499
155.1072047 2.071131181
167.1799757 1.863036917
193.1956258 2.793069221
195.2112759 27.14565217
197.1541549 1.12940799
213.2218405 4.48878206
255.2324052 7.330332831
41.03912516 8.752990264
43.01838972 5.494503801
43.05477522 8.442608373
53.03912516 3.856822875
55.05477522 6.004992225
57.07042529 5.47472659
67.05477522 3.848027262
69.07042529 2.663955932
71.08607535 3.319639036
81.07042529 2.610699122
83.08607535 1.701815667
85.10172542 2.343949886
95.08607535 1.227170641
97.10172542 2.488667981
109.1017254 2.602557469
111.1173755 1.013862235
123.1173755 4.297543109
125.1330255 1.061908368
137.1330255 4.592572338
139.1486756 3.26819834
151.1486756 3.520072827
153.1643257 3.26819834
155.1072047 0.876772601
165.1643257 3.314706362
167.1799757 3.197281666
169.1956258 1.313024456
179.1799757 1.20794539
181.1956258 2.090654672
193.1956258 2.242447955
195.2112759 2.571501953
239.2011051 1.330182262
END IONS
BEGIN IONS
PEPMASS=265.1434351
CHARGE=1+
FILENAME=PMA_065450
UNPD_ID=UNPD159667
MOLECULAR_FORMULA=C15H20O4
SEQ=*..*
IONMODE=Positive
EXACTMASS=264.1361591
NAME=UNPD159667
SMILES=CC1(CC2CC34OC3C(O)C(=C)C4(C)C2C1)C(=O)O
INCHI=InChI=1/C15H20O4/c1-7-10(16)11-15(19-11)5-8-4-13(2,12(17)18)6-9(8)14(7,15)3/h8-11,16H,1,4-6H2,2-3H3,(H,17,18)/t8-,9-,10-,11-,13+,14+,15-/m1/s1
INCHIKEY=IZLOHISHEUGGDJ-BLYYJXBTSA-N
SCANS=1
89.06025453 0.202509242
103.0759046 0.2958019127
125.0602545 0.3621910748
139.0759046 0.5216391499
141.0915547 0.4444320393
161.0602545 0.2748680556
161.09664 0.2745879869
163.0759046 0.4968202779
163.1122901 0.2628375043
177.0915547 0.7172361278
179.1072047 0.3546284348
189.0915547 0.3969330405
191.1072047 1.296710669
193.1228548 0.4955412588
195.1385048 0.4416666487
201.1279402 1.319445615
203.1072047 0.3354932721
203.1435902 0.3671996706
205.0864693 0.2618657494
207.1021193 0.9734783235
209.1177694 0.577796633
211.1334195 0.3300329929
217.1228548 1.910953489
219.1385048 15.76876606
221.1541549 2.246580007
229.1228548 1.750771949
231.1021193 0.3315827616
237.112684 0.3237512298
247.1334195 19.2351616
249.112684 0.8656440633
265.1439842 46.56307316
55.01838972 1.081866991
79.05477522 1.745521021
81.07042529 1.096603385
87.04460446 0.9206331185
93.07042529 2.498044249
95.08607535 2.216669657
97.10172542 1.66883671
123.0446045 1.515028825
125.0602545 2.484474189
127.0759046 1.087443391
137.0602545 0.9800656353
139.0759046 3.845532307
141.0915547 1.110378157
159.08099 1.179315272
163.0759046 0.9854477428
175.0759046 1.195289112
177.0915547 3.885255401
179.1072047 2.044419058
189.0915547 1.659319217
191.1072047 1.629090243
201.1279402 3.189950353
203.1072047 0.8602884512
203.1435902 1.22948235
217.1228548 2.262471674
219.1385048 18.15126608
221.1541549 3.698312893
229.1228548 4.810802476
231.1021193 0.8725740533
235.1334195 0.9034846931
247.1334195 16.37423618
265.1439842 12.81789712
27.0234751 1.751922926
41.03912516 5.174700751
51.0234751 4.875993672
53.03912516 7.83008124
55.05477522 2.822384374
57.03403978 1.598779775
57.07042529 2.822528912
79.05477522 4.407802617
81.03403978 1.602208719
81.07042529 7.756034333
95.08607535 3.349341801
107.0496898 1.980406063
121.0653399 2.112969274
123.08099 2.135547202
125.0602545 1.764235759
137.0602545 2.911795652
149.0602545 3.474983159
151.0759046 2.962453339
161.0602545 4.22894264
161.09664 4.784883642
163.0759046 3.743539074
163.1122901 1.762199882
175.0759046 1.893717005
177.0915547 4.339335138
179.1072047 1.732419302
191.1072047 2.120679172
193.1228548 1.890592275
201.1279402 4.194213008
203.1072047 3.782017587
203.1435902 2.525530523
249.112684 1.667761184
END IONS
BEGIN IONS
PEPMASS=1053.809327
CHARGE=1+
FILENAME=PMA_065451
UNPD_ID=UNPD159669
MOLECULAR_FORMULA=C61H113O11P
SEQ=*..*
IONMODE=Positive
EXACTMASS=1052.802051
NAME=UNPD159669
SMILES=CC(CCCCCCCC1CCCCCC1)CCC(=O)OCC(O)COP(=O)(O)OCC(COC(=O)CCCCCCCCCCCCC2CCCCC2)OC(=O)CCCCCCCCCCC3CCCCC3
INCHI=InChI=1/C61H113O11P/c1-53(35-23-13-12-16-26-38-54-39-27-19-20-28-40-54)47-48-60(64)68-49-57(62)50-70-73(66,67)71-52-58(72-61(65)46-34-18-11-7-6-9-15-25-37-56-43-31-22-32-44-56)51-69-59(63)45-33-17-10-5-3-2-4-8-14-24-36-55-41-29-21-30-42-55/h53-58,62H,2-52H2,1H3,(H,66,67)/t53-,57-,58-/m0/s1
INCHIKEY=HDDQHIGFLIJCEC-JMZWQWJHSA-N
SCANS=1
59.04968984 1.281413144
233.2269259 1.727551403
237.2582261 3.764951262
251.2374906 8.124508415
261.2582261 2.011469434
269.2480553 2.529403106
277.2531407 1.772085331
279.2687907 13.92155325
297.2793554 2.885404012
309.2793554 1.288866633
337.3106556 1.758420679
351.2899201 1.464532466
353.3055702 4.8410178
433.2719007 1.708990753
449.2668153 1.249091573
463.2824654 1.851753378
491.3137655 1.820720265
491.3137655 1.505554181
601.5195857 1.464532466
603.5352358 3.3899242
699.4964809 1.249091573
713.512131 1.250654752
755.5226956 2.064654513
757.5383457 7.197729446
759.5539958 1.339782793
775.5489104 1.978716666
785.5696458 5.060270023
803.5802105 1.876300241
955.7003257 1.476023742
1035.799311 10.09750771
1053.809876 6.047524786
59.04968984 2.192720062
97.10172542 1.361225971
111.1173755 1.323897396
233.2269259 2.879649046
237.2582261 4.508045214
251.2374906 7.894252203
251.2738761 3.718795187
261.2582261 3.880856017
279.2687907 14.19161848
309.2793554 2.231284901
335.2950055 1.701185188
337.3106556 2.135947665
351.2899201 1.747061263
353.3055702 5.243366442
353.3055702 1.429510002
433.2719007 3.031737345
449.2668153 1.938277628
463.2824654 1.893961408
507.3086801 1.541666807
507.3086801 1.578557308
601.5195857 1.747061263
603.5352358 2.942033897
683.5015663 3.090284885
699.4964809 1.938277628
757.5383457 3.115800112
775.5489104 4.338060846
785.5696458 2.966340126
871.6064253 1.682639959
941.6846756 1.633201295
955.7003257 2.481061354
1035.799311 7.641623101
59.04968984 4.095618869
223.242576 3.12374475
233.2269259 4.416833781
235.242576 3.798008832
237.2582261 6.078591149
239.2738761 2.493998799
251.2374906 4.755008856
251.2738761 6.054940981
261.2582261 1.952028317
279.2687907 7.131905946
309.2793554 3.710790628
311.2950055 2.430209356
335.2950055 2.152043168
337.3106556 5.059405294
351.2899201 2.375407795
353.3055702 4.86941851
353.3055702 5.115111445
449.2668153 1.884347102
601.5195857 2.375407795
603.5352358 2.005836421
699.4964809 1.884347102
713.512131 2.682393543
857.5907752 2.205977259
871.6064253 2.296934016
885.6220753 1.827757114
899.6377254 1.827757114
913.6533755 1.827757114
927.6690255 1.827757114
941.6846756 2.41046271
955.7003257 2.867116389
1035.799311 2.46308273
END IONS
BEGIN IONS
PEPMASS=421.2584649
CHARGE=1+
FILENAME=PMA_065452
UNPD_ID=UNPD15967
MOLECULAR_FORMULA=C24H36O6
SEQ=*..*
IONMODE=Positive
EXACTMASS=420.2511889
NAME=UNPD15967
SMILES=CC(=O)OC1CCC2(C)C3CCC(C)(OC3(C)C(=O)C(OC(=O)C)C2C1(C)C)C=C
INCHI=InChI=1/C24H36O6/c1-9-22(6)12-10-16-23(7)13-11-17(28-14(2)25)21(4,5)19(23)18(29-15(3)26)20(27)24(16,8)30-22/h9,16-19H,1,10-13H2,2-8H3/t16-,17+,18-,19+,22+,23-,24+/m1/s1
INCHIKEY=NTWNEDDMBHPYAY-OSHVOQOVSA-N
SCANS=1
43.01838972 1.806898811
51.0234751 0.8391660079
53.03912516 0.7422511693
57.07042529 0.8263874228
61.0289544 0.802668801
67.05477522 0.95362257
81.07042529 0.6511219487
85.06533991 1.612048426
181.1228548 0.5211156716
279.1596342 0.5031804493
293.1752843 1.212721525
299.2011051 0.7040110363
301.2167552 1.077868805
305.1752843 0.7777161368
311.185849 1.475993791
317.2116698 1.793281962
319.2273199 3.007190248
335.2222345 1.731400243
339.1807636 1.652810167
343.2273199 0.8410706229
349.1651135 1.187761195
351.1807636 1.998035141
353.1964136 4.506252363
355.2120637 0.9145145405
359.2222345 3.001202294
361.2378845 15.91992707
379.2484492 20.80836066
393.2277138 0.5271297273
403.2484492 3.65842909
405.2277138 2.312599559
421.2590139 21.63326254
43.01838972 1.815819321
53.03912516 2.840898814
55.05477522 1.790884933
79.05477522 2.428813434
81.07042529 3.304288875
181.1228548 2.155114477
253.1439842 1.762534644
279.1596342 3.097559288
281.1752843 1.780983194
283.1909343 1.542524362
291.1596342 2.561659623
293.1752843 6.587442111
295.1909343 1.544596514
297.1701989 1.616696328
297.1701989 1.639425839
311.185849 6.779060395
319.2273199 4.043477633
335.2222345 1.69736381
337.1651135 1.906256155
337.201499 1.672495529
337.2378845 3.440961152
339.1807636 2.870041931
351.1807636 4.920294883
353.1964136 6.517592427
359.2222345 2.543669721
361.2378845 10.1173918
365.1964136 2.12298671
379.2484492 7.837380983
403.2484492 1.860149964
405.2277138 2.667148246
421.2590139 2.534486902
43.01838972 3.348489503
51.0234751 4.44714301
53.03912516 3.018945538
57.07042529 14.72469657
67.05477522 5.951674026
79.05477522 1.944291584
81.07042529 1.81234445
85.06533991 3.307874432
137.09664 1.665294786
197.1541549 2.004572028
235.097034 2.570138206
237.112684 1.897081101
239.1283341 3.067710727
253.1439842 2.635094577
253.1803697 1.81647063
277.1439842 2.171918118
279.1596342 1.907139635
279.1960197 1.909646657
293.1752843 2.782502976
299.2011051 3.684579583
301.2167552 2.051185353
311.185849 2.584259844
317.2116698 2.613401314
317.2116698 3.188268489
319.2273199 7.50448286
335.2222345 4.04887716
337.201499 1.98468278
359.2222345 2.886637171
361.2378845 2.229520233
377.2327992 1.888427048
405.2277138 2.352649613
END IONS
BEGIN IONS
PEPMASS=233.1536059
CHARGE=1+
FILENAME=PMA_065453
UNPD_ID=UNPD159670
MOLECULAR_FORMULA=C15H20O2
SEQ=*..*
IONMODE=Positive
EXACTMASS=232.1463299
NAME=UNPD159670
SMILES=CCCCCC=CCc1ccc2OCOc2c1
INCHI=InChI=1/C15H20O2/c1-2-3-4-5-6-7-8-13-9-10-14-15(11-13)17-12-16-14/h6-7,9-11H,2-5,8,12H2,1H3/b7-6+
INCHIKEY=DXAOUCKABRGQIV-VOTSOKGWSA-N
SCANS=1
41.03912516 0.3326975007
43.05477522 0.8656749989
47.01330434 0.8242113998
55.05477522 0.328678218
57.07042529 0.850498924
71.08607535 0.8281362622
81.07042529 0.6279750616
83.08607535 1.494182113
85.10172542 1.110774089
87.11737548 0.3314278985
95.08607535 0.551718299
97.10172542 2.096594885
107.0860754 0.3810028197
109.1017254 0.5664615843
111.1173755 2.004694868
123.0446045 0.8148637696
137.0602545 0.7118851948
147.0446045 1.504503596
149.0602545 1.094472525
151.0759046 0.3324004611
161.0602545 0.8190998947
175.0759046 0.7848941904
185.1330255 0.8410153212
187.1486756 0.4718874166
189.0915547 0.7660765062
201.1279402 0.9743813587
203.1072047 0.8175214575
203.1435902 5.614948653
205.1228548 0.9095360024
217.1228548 0.5701708608
233.1541549 69.77761387
41.03912516 2.399299363
43.05477522 3.819776306
53.03912516 2.587055437
55.05477522 2.133599512
57.07042529 3.47730497
67.05477522 2.307721337
69.07042529 1.792677476
71.08607535 3.151571792
81.07042529 4.538942915
83.08607535 3.648763631
85.10172542 2.462986496
93.07042529 1.797145332
95.08607535 1.840018405
97.10172542 6.900998239
107.0860754 1.099157271
109.1017254 1.568185313
111.1173755 4.703906206
123.0446045 1.072742599
137.0602545 1.554218261
147.0446045 4.060022193
149.0602545 2.466891358
161.0602545 2.942167959
175.0759046 2.59549871
185.1330255 1.312172684
187.1486756 0.794078359
189.0915547 2.212409159
201.1279402 0.8055882001
203.1435902 5.395455542
215.1435902 0.8028752604
217.1228548 1.884409788
233.1541549 21.87235992
41.03912516 10.79823329
43.05477522 13.42288993
45.07042529 1.193368797
51.0234751 3.260680556
53.03912516 7.535061461
55.05477522 5.64389334
57.07042529 7.368429423
65.03912516 1.358378959
67.05477522 4.210611236
69.07042529 2.234735821
71.08607535 3.338963003
81.07042529 1.318333264
83.08607535 1.764875428
93.07042529 1.858887067
95.08607535 1.387382625
97.10172542 3.956917787
103.0547752 2.399377565
117.0704253 1.136881767
119.0860754 1.131177403
121.1017254 1.84890494
129.0704253 1.979521635
133.1017254 2.449746842
143.0860754 1.610052299
145.1017254 2.664903536
147.0446045 1.716251548
147.1173755 2.485816358
161.0602545 1.288952815
161.1330255 1.301351851
185.1330255 3.567718117
203.1435902 1.700272753
217.1228548 2.067428594
END IONS
BEGIN IONS
PEPMASS=227.1066557
CHARGE=1+
FILENAME=PMA_065455
UNPD_ID=UNPD159672
MOLECULAR_FORMULA=C15H14O2
SEQ=*..*
IONMODE=Positive
EXACTMASS=226.0993797
NAME=UNPD159672
SMILES=CC(=O)OCC=CC#CC#CC=CC=CC=C
INCHI=InChI=1/C15H14O2/c1-3-4-5-6-7-8-9-10-11-12-13-14-17-15(2)16/h3-7,12-13H,1,14H2,2H3/b5-4+,7-6+,13-12+
INCHIKEY=USLMUFBQLLBZGE-YAPKZDNLSA-N
SCANS=1
41.03912516 0.8961777728
43.01838972 4.390377091
53.03912516 0.6881364988
61.0289544 4.00389873
65.03912516 1.22386788
67.05477522 0.8558697826
79.05477522 0.6425552172
85.0289544 0.554366398
87.04460446 1.105058712
91.05477522 0.6156805884
99.04460446 0.5180747076
103.0547752 0.5936609098
115.0547752 0.6864053358
123.0446045 0.5180747076
127.0547752 0.7222653885
137.0391252 0.5572901798
139.0547752 2.463410328
141.0704253 1.982809177
153.0704253 0.6797958902
159.0446045 0.9307736331
161.0602545 0.6761043262
165.0704253 2.935876442
167.0860754 21.81741384
185.0602545 0.9401470376
185.09664 4.716428388
187.0759046 0.6817413022
199.0759046 0.5602638241
201.0915547 0.5904085101
209.09664 1.855297593
211.0759046 0.6175339459
227.1072047 39.98023587
41.03912516 2.199703192
43.01838972 2.303577618
51.0234751 1.863542643
53.03912516 2.744200321
61.0289544 2.73715825
65.03912516 3.479985733
67.05477522 1.949986723
75.0234751 1.747861827
77.03912516 1.465887308
79.05477522 2.428402205
89.03912516 1.780251001
91.05477522 1.539981581
99.0234751 1.822882678
101.0391252 2.585955129
103.0547752 1.456749191
113.0391252 2.383410735
115.0547752 2.227173048
123.0234751 1.378217963
123.0446045 1.04245791
125.0391252 1.384716963
127.0547752 2.86565017
137.0391252 1.061018834
139.0547752 2.539358301
157.0289544 1.764995834
159.0446045 1.220027132
165.0704253 2.426178436
167.0860754 36.60537627
183.0446045 1.493405239
185.0602545 1.134440171
185.09664 3.620342266
227.1072047 4.74710532
41.03912516 4.574787059
43.01838972 10.69361769
51.0234751 9.648355487
53.03912516 8.704179734
57.03403978 1.328142835
61.0289544 2.530696178
65.03912516 5.671696518
67.05477522 1.75914039
75.0234751 6.961369311
77.03912516 3.125583987
79.05477522 3.257363558
81.03403978 1.549635933
89.03912516 3.390436905
91.01838972 1.034609422
91.05477522 1.974882138
93.03403978 0.9510055861
99.0234751 5.541634485
99.04460446 0.8048625568
101.0391252 4.195048966
103.0547752 1.544064814
105.0340398 1.549635933
113.0391252 3.673034361
115.0547752 2.177124092
123.0234751 2.208830414
123.0446045 0.8048625568
125.0391252 1.410735083
127.0547752 3.04625731
137.0391252 1.191309039
139.0547752 1.051403475
167.0860754 2.677524848
211.0759046 0.9681693405
END IONS
BEGIN IONS
PEPMASS=639.2283465
CHARGE=1+
FILENAME=PMA_065456
UNPD_ID=UNPD159673
MOLECULAR_FORMULA=C30H38O15
SEQ=*..*
IONMODE=Positive
EXACTMASS=638.2210705
NAME=UNPD159673
SMILES=COc1cc(C=C/C(=O)OC2C(CO)OC(OCCc3ccc(O)c(O)c3)C(O)C2OC4OC(C)C(O)C(O)C4O)ccc1O
INCHI=InChI=1/C30H38O15/c1-14-23(36)24(37)25(38)30(42-14)45-28-26(39)29(41-10-9-16-3-6-17(32)19(34)11-16)43-21(13-31)27(28)44-22(35)8-5-15-4-7-18(33)20(12-15)40-2/h3-8,11-12,14,21,23-34,36-39H,9-10,13H2,1-2H3/b8-5-/t14-,21-,23-,24+,25+,26-,27-,28-,29-,30-/m1/s1
INCHIKEY=ZMYQRHSOVRDQDL-ITNPQRMPSA-N
SCANS=1
27.0234751 0.6824208829
109.0289544 1.443387934
111.0446045 0.809058342
135.0446045 0.7886335389
137.0602545 9.379463818
139.0759046 1.421757103
147.0657338 2.394903259
155.0708192 3.94370514
175.0395191 1.20896907
177.0551691 10.33328018
195.0657338 0.66039338
281.1025133 0.6959639508
283.1181633 0.6492819245
297.0974279 0.9151704552
299.1130779 2.854747601
315.1079926 2.007279393
339.1079926 1.087438249
425.144772 0.8570573912
445.1709867 5.22064598
463.1815514 2.253262745
473.144772 0.6152742363
475.1604221 8.529575015
475.1604221 3.179932139
477.1760721 0.6740746264
485.1659014 1.293105433
493.1709867 12.0225796
503.1764661 0.8502529902
607.2026808 0.6198926432
621.2183309 8.567790423
621.2183309 3.989517503
639.2288955 10.05118505
57.03403978 1.280821736
107.0496898 0.9047582086
109.0289544 0.9127524848
123.0446045 1.027865061
125.0602545 2.017347565
129.0551691 1.148291814
135.0446045 1.339995423
137.0602545 19.51919234
147.0446045 0.8541874485
147.0657338 3.171666256
149.0602545 2.132978272
155.0708192 12.38041463
177.0551691 9.75556168
249.0762985 0.8013832544
299.1130779 1.568951744
315.1079926 5.287697228
317.1236426 2.847491528
339.1079926 2.655929607
341.1236426 0.9728837726
355.1029072 0.9543576165
357.1185573 1.014754173
445.1709867 2.391203738
463.1604221 1.961843935
463.1815514 1.019508525
475.1604221 3.982714619
475.1604221 6.697562335
477.1760721 1.084034123
493.1709867 6.764357622
609.2183309 1.706959833
621.2183309 0.9645309217
621.2183309 0.8780025092
57.03403978 1.549045702
87.04460446 1.742435665
107.0496898 1.610046483
109.0289544 1.472065577
119.0496898 1.326890452
123.0446045 2.485994681
129.0551691 1.394749874
131.0708192 1.531271101
135.0446045 1.528383522
137.0602545 12.44820689
147.0657338 2.425686476
149.0602545 1.591607643
155.0708192 2.68152194
177.0551691 6.533540051
179.0344337 1.528051198
225.0762985 1.361599816
243.0868632 1.624336663
297.0974279 2.321126219
299.1130779 10.34217779
301.128728 1.481926213
313.0923425 1.284909431
315.1079926 14.75161734
317.1236426 1.614427996
339.1079926 6.07399666
341.1236426 2.340496559
445.1709867 2.202601358
459.1655074 1.475866858
475.1604221 3.103111139
475.1604221 4.118558778
493.1709867 2.022714027
621.2183309 2.031035902
END IONS
BEGIN IONS
PEPMASS=463.3206712
CHARGE=1+
FILENAME=PMA_065457
UNPD_ID=UNPD159674
MOLECULAR_FORMULA=C31H42O3
SEQ=*..*
IONMODE=Positive
EXACTMASS=462.3133952
NAME=UNPD159674
SMILES=CC(=CCCC(=CCCC(=CCCC(=CCc1cc(O)cc2C(=C(C)C)C(=O)Oc12)C)C)C)C
INCHI=InChI=1/C31H42O3/c1-21(2)11-8-12-23(5)13-9-14-24(6)15-10-16-25(7)17-18-26-19-27(32)20-28-29(22(3)4)31(33)34-30(26)28/h11,13,15,17,19-20,32H,8-10,12,14,16,18H2,1-7H3/b23-13+,24-15+,25-17+
INCHIKEY=LPJLAXYRFCLYIG-HBKYZHKXSA-N
SCANS=1
69.07042529 1.51787138
109.1017254 2.333842448
111.1173755 1.703933813
123.1173755 1.467662977
137.1330255 1.416202841
177.1643257 2.355775615
179.1799757 1.723713232
191.1799757 1.495135774
205.1956258 1.474935441
215.0708192 1.573858411
245.2269259 2.313727638
247.242576 1.723713232
257.1177694 1.42836364
259.242576 3.11759923
271.1334195 1.397427321
283.1334195 1.590669855
285.1490695 1.370256598
325.1803697 1.44114575
339.1960197 1.418368443
351.1960197 1.590669855
363.2687907 1.982848196
381.2793554 2.641972428
393.2429699 1.468449262
407.25862 1.474935441
419.25862 9.150482871
419.331391 1.422168216
421.27427 2.964712965
421.27427 4.293877281
423.2899201 2.163664146
445.3106556 2.863405245
463.3212202 35.11861046
67.05477522 3.126583179
69.07042529 4.094172332
107.0860754 3.352586587
109.1017254 2.484185384
123.1173755 3.624717311
137.1330255 2.77996989
175.1486756 3.270223798
177.1643257 2.666011758
187.1486756 2.441332176
191.1799757 4.064572747
205.1956258 3.461668178
215.0708192 2.227405338
243.2112759 3.825602554
245.2269259 2.393143289
255.2112759 2.611409556
257.1177694 2.810070322
259.242576 4.889549155
271.1334195 2.590081878
273.2582261 3.556987239
283.1334195 2.612954061
325.1803697 3.344103474
339.1960197 2.480107472
351.1960197 2.612954061
381.2793554 3.699201488
393.2429699 3.648560424
407.25862 3.461668178
419.25862 4.233304045
419.331391 2.968199427
423.2899201 3.669640919
445.3106556 3.104726746
463.3212202 3.894307034
41.03912516 1.903468897
51.0234751 3.850362728
53.03912516 6.951049976
67.05477522 8.268142773
69.07042529 4.286182344
107.0860754 2.57299675
109.1017254 2.384786475
169.0653399 3.60436467
177.1643257 4.056928553
179.1799757 1.956657983
191.1799757 3.584515052
205.1956258 3.429554355
209.09664 4.149592947
223.1122901 2.700211075
237.1279402 2.035295675
243.2112759 2.144987891
245.2269259 3.511845234
247.242576 1.956657983
257.2269259 2.427461296
273.2582261 2.046110179
281.2269259 6.252880935
359.2374906 1.901267686
361.2531407 3.10522761
363.2687907 1.922746374
377.2116698 2.826018716
379.2273199 2.841199741
393.2429699 3.102904558
407.25862 3.429554355
419.331391 2.2208208
END IONS
BEGIN IONS
PEPMASS=255.2318562
CHARGE=1+
FILENAME=PMA_065449
UNPD_ID=UNPD159666
MOLECULAR_FORMULA=C16H30O2
SEQ=*..*
IONMODE=Positive
EXACTMASS=254.2245802
NAME=UNPD159666
SMILES=CCCCCCC=C/CCCCCCOC(=O)C
INCHI=InChI=1/C16H30O2/c1-3-4-5-6-7-8-9-10-11-12-13-14-15-18-16(2)17/h8-9H,3-7,10-15H2,1-2H3/b9-8-
INCHIKEY=UEZQOSGCHCNWOE-HJWRWDBZSA-N
SCANS=1
43.01838972 4.690475813
43.05477522 0.762441597
57.07042529 0.7472098975
61.0289544 1.145286216
71.08607535 0.7245731505
85.10172542 0.7232018284
97.10172542 1.368959066
99.11737548 0.9095317335
101.0602545 0.572795818
111.1173755 0.7324936025
125.1330255 0.7378406524
129.0915547 0.5730085285
139.1486756 0.7462827013
143.1072047 0.580013265
153.1643257 0.7462827013
155.1072047 1.219020401
157.1228548 0.8491321712
165.1643257 0.8401951857
167.1799757 1.346793904
169.1228548 0.5855188151
181.1956258 0.5687546799
183.1385048 0.5992750423
193.1956258 1.863673463
195.2112759 15.33332064
197.1541549 0.6152568401
211.169805 0.6152568401
213.2218405 5.468102816
225.185455 0.6648307316
227.2011051 0.7006015823
237.2218405 2.204856747
255.2324052 50.76501357
41.03912516 2.111690155
43.01838972 2.493699007
43.05477522 2.831439328
53.03912516 1.518805035
55.05477522 2.043412234
57.07042529 2.624645395
61.0289544 2.761721083
67.05477522 1.398256442
69.07042529 1.654316511
71.08607535 2.449019125
81.07042529 1.483127543
83.08607535 1.612174288
85.10172542 2.349922563
95.08607535 3.314293013
97.10172542 3.362612482
99.11737548 1.323149662
109.1017254 2.191123448
111.1173755 2.062164454
123.1173755 2.288942475
125.1330255 2.123649443
137.1330255 2.314101949
139.1486756 2.311234499
151.1486756 2.243852994
153.1643257 2.311234499
155.1072047 2.071131181
167.1799757 1.863036917
193.1956258 2.793069221
195.2112759 27.14565217
197.1541549 1.12940799
213.2218405 4.48878206
255.2324052 7.330332831
41.03912516 8.752990264
43.01838972 5.494503801
43.05477522 8.442608373
53.03912516 3.856822875
55.05477522 6.004992225
57.07042529 5.47472659
67.05477522 3.848027262
69.07042529 2.663955932
71.08607535 3.319639036
81.07042529 2.610699122
83.08607535 1.701815667
85.10172542 2.343949886
95.08607535 1.227170641
97.10172542 2.488667981
109.1017254 2.602557469
111.1173755 1.013862235
123.1173755 4.297543109
125.1330255 1.061908368
137.1330255 4.592572338
139.1486756 3.26819834
151.1486756 3.520072827
153.1643257 3.26819834
155.1072047 0.876772601
165.1643257 3.314706362
167.1799757 3.197281666
169.1956258 1.313024456
179.1799757 1.20794539
181.1956258 2.090654672
193.1956258 2.242447955
195.2112759 2.571501953
239.2011051 1.330182262
END IONS
BEGIN IONS
PEPMASS=265.1434351
CHARGE=1+
FILENAME=PMA_065450
UNPD_ID=UNPD159667
MOLECULAR_FORMULA=C15H20O4
SEQ=*..*
IONMODE=Positive
EXACTMASS=264.1361591
NAME=UNPD159667
SMILES=CC1(CC2CC34OC3C(O)C(=C)C4(C)C2C1)C(=O)O
INCHI=InChI=1/C15H20O4/c1-7-10(16)11-15(19-11)5-8-4-13(2,12(17)18)6-9(8)14(7,15)3/h8-11,16H,1,4-6H2,2-3H3,(H,17,18)/t8-,9-,10-,11-,13+,14+,15-/m1/s1
INCHIKEY=IZLOHISHEUGGDJ-BLYYJXBTSA-N
SCANS=1
89.06025453 0.202509242
103.0759046 0.2958019127
125.0602545 0.3621910748
139.0759046 0.5216391499
141.0915547 0.4444320393
161.0602545 0.2748680556
161.09664 0.2745879869
163.0759046 0.4968202779
163.1122901 0.2628375043
177.0915547 0.7172361278
179.1072047 0.3546284348
189.0915547 0.3969330405
191.1072047 1.296710669
193.1228548 0.4955412588
195.1385048 0.4416666487
201.1279402 1.319445615
203.1072047 0.3354932721
203.1435902 0.3671996706
205.0864693 0.2618657494
207.1021193 0.9734783235
209.1177694 0.577796633
211.1334195 0.3300329929
217.1228548 1.910953489
219.1385048 15.76876606
221.1541549 2.246580007
229.1228548 1.750771949
231.1021193 0.3315827616
237.112684 0.3237512298
247.1334195 19.2351616
249.112684 0.8656440633
265.1439842 46.56307316
55.01838972 1.081866991
79.05477522 1.745521021
81.07042529 1.096603385
87.04460446 0.9206331185
93.07042529 2.498044249
95.08607535 2.216669657
97.10172542 1.66883671
123.0446045 1.515028825
125.0602545 2.484474189
127.0759046 1.087443391
137.0602545 0.9800656353
139.0759046 3.845532307
141.0915547 1.110378157
159.08099 1.179315272
163.0759046 0.9854477428
175.0759046 1.195289112
177.0915547 3.885255401
179.1072047 2.044419058
189.0915547 1.659319217
191.1072047 1.629090243
201.1279402 3.189950353
203.1072047 0.8602884512
203.1435902 1.22948235
217.1228548 2.262471674
219.1385048 18.15126608
221.1541549 3.698312893
229.1228548 4.810802476
231.1021193 0.8725740533
235.1334195 0.9034846931
247.1334195 16.37423618
265.1439842 12.81789712
27.0234751 1.751922926
41.03912516 5.174700751
51.0234751 4.875993672
53.03912516 7.83008124
55.05477522 2.822384374
57.03403978 1.598779775
57.07042529 2.822528912
79.05477522 4.407802617
81.03403978 1.602208719
81.07042529 7.756034333
95.08607535 3.349341801
107.0496898 1.980406063
121.0653399 2.112969274
123.08099 2.135547202
125.0602545 1.764235759
137.0602545 2.911795652
149.0602545 3.474983159
151.0759046 2.962453339
161.0602545 4.22894264
161.09664 4.784883642
163.0759046 3.743539074
163.1122901 1.762199882
175.0759046 1.893717005
177.0915547 4.339335138
179.1072047 1.732419302
191.1072047 2.120679172
193.1228548 1.890592275
201.1279402 4.194213008
203.1072047 3.782017587
203.1435902 2.525530523
249.112684 1.667761184
END IONS
BEGIN IONS
PEPMASS=1053.809327
CHARGE=1+
FILENAME=PMA_065451
UNPD_ID=UNPD159669
MOLECULAR_FORMULA=C61H113O11P
SEQ=*..*
IONMODE=Positive
EXACTMASS=1052.802051
NAME=UNPD159669
SMILES=CC(CCCCCCCC1CCCCCC1)CCC(=O)OCC(O)COP(=O)(O)OCC(COC(=O)CCCCCCCCCCCCC2CCCCC2)OC(=O)CCCCCCCCCCC3CCCCC3
INCHI=InChI=1/C61H113O11P/c1-53(35-23-13-12-16-26-38-54-39-27-19-20-28-40-54)47-48-60(64)68-49-57(62)50-70-73(66,67)71-52-58(72-61(65)46-34-18-11-7-6-9-15-25-37-56-43-31-22-32-44-56)51-69-59(63)45-33-17-10-5-3-2-4-8-14-24-36-55-41-29-21-30-42-55/h53-58,62H,2-52H2,1H3,(H,66,67)/t53-,57-,58-/m0/s1
INCHIKEY=HDDQHIGFLIJCEC-JMZWQWJHSA-N
SCANS=1
59.04968984 1.281413144
233.2269259 1.727551403
237.2582261 3.764951262
251.2374906 8.124508415
261.2582261 2.011469434
269.2480553 2.529403106
277.2531407 1.772085331
279.2687907 13.92155325
297.2793554 2.885404012
309.2793554 1.288866633
337.3106556 1.758420679
351.2899201 1.464532466
353.3055702 4.8410178
433.2719007 1.708990753
449.2668153 1.249091573
463.2824654 1.851753378
491.3137655 1.820720265
491.3137655 1.505554181
601.5195857 1.464532466
603.5352358 3.3899242
699.4964809 1.249091573
713.512131 1.250654752
755.5226956 2.064654513
757.5383457 7.197729446
759.5539958 1.339782793
775.5489104 1.978716666
785.5696458 5.060270023
803.5802105 1.876300241
955.7003257 1.476023742
1035.799311 10.09750771
1053.809876 6.047524786
59.04968984 2.192720062
97.10172542 1.361225971
111.1173755 1.323897396
233.2269259 2.879649046
237.2582261 4.508045214
251.2374906 7.894252203
251.2738761 3.718795187
261.2582261 3.880856017
279.2687907 14.19161848
309.2793554 2.231284901
335.2950055 1.701185188
337.3106556 2.135947665
351.2899201 1.747061263
353.3055702 5.243366442
353.3055702 1.429510002
433.2719007 3.031737345
449.2668153 1.938277628
463.2824654 1.893961408
507.3086801 1.541666807
507.3086801 1.578557308
601.5195857 1.747061263
603.5352358 2.942033897
683.5015663 3.090284885
699.4964809 1.938277628
757.5383457 3.115800112
775.5489104 4.338060846
785.5696458 2.966340126
871.6064253 1.682639959
941.6846756 1.633201295
955.7003257 2.481061354
1035.799311 7.641623101
59.04968984 4.095618869
223.242576 3.12374475
233.2269259 4.416833781
235.242576 3.798008832
237.2582261 6.078591149
239.2738761 2.493998799
251.2374906 4.755008856
251.2738761 6.054940981
261.2582261 1.952028317
279.2687907 7.131905946
309.2793554 3.710790628
311.2950055 2.430209356
335.2950055 2.152043168
337.3106556 5.059405294
351.2899201 2.375407795
353.3055702 4.86941851
353.3055702 5.115111445
449.2668153 1.884347102
601.5195857 2.375407795
603.5352358 2.005836421
699.4964809 1.884347102
713.512131 2.682393543
857.5907752 2.205977259
871.6064253 2.296934016
885.6220753 1.827757114
899.6377254 1.827757114
913.6533755 1.827757114
927.6690255 1.827757114
941.6846756 2.41046271
955.7003257 2.867116389
1035.799311 2.46308273
END IONS
BEGIN IONS
PEPMASS=421.2584649
CHARGE=1+
FILENAME=PMA_065452
UNPD_ID=UNPD15967
MOLECULAR_FORMULA=C24H36O6
SEQ=*..*
IONMODE=Positive
EXACTMASS=420.2511889
NAME=UNPD15967
SMILES=CC(=O)OC1CCC2(C)C3CCC(C)(OC3(C)C(=O)C(OC(=O)C)C2C1(C)C)C=C
INCHI=InChI=1/C24H36O6/c1-9-22(6)12-10-16-23(7)13-11-17(28-14(2)25)21(4,5)19(23)18(29-15(3)26)20(27)24(16,8)30-22/h9,16-19H,1,10-13H2,2-8H3/t16-,17+,18-,19+,22+,23-,24+/m1/s1
INCHIKEY=NTWNEDDMBHPYAY-OSHVOQOVSA-N
SCANS=1
43.01838972 1.806898811
51.0234751 0.8391660079
53.03912516 0.7422511693
57.07042529 0.8263874228
61.0289544 0.802668801
67.05477522 0.95362257
81.07042529 0.6511219487
85.06533991 1.612048426
181.1228548 0.5211156716
279.1596342 0.5031804493
293.1752843 1.212721525
299.2011051 0.7040110363
301.2167552 1.077868805
305.1752843 0.7777161368
311.185849 1.475993791
317.2116698 1.793281962
319.2273199 3.007190248
335.2222345 1.731400243
339.1807636 1.652810167
343.2273199 0.8410706229
349.1651135 1.187761195
351.1807636 1.998035141
353.1964136 4.506252363
355.2120637 0.9145145405
359.2222345 3.001202294
361.2378845 15.91992707
379.2484492 20.80836066
393.2277138 0.5271297273
403.2484492 3.65842909
405.2277138 2.312599559
421.2590139 21.63326254
43.01838972 1.815819321
53.03912516 2.840898814
55.05477522 1.790884933
79.05477522 2.428813434
81.07042529 3.304288875
181.1228548 2.155114477
253.1439842 1.762534644
279.1596342 3.097559288
281.1752843 1.780983194
283.1909343 1.542524362
291.1596342 2.561659623
293.1752843 6.587442111
295.1909343 1.544596514
297.1701989 1.616696328
297.1701989 1.639425839
311.185849 6.779060395
319.2273199 4.043477633
335.2222345 1.69736381
337.1651135 1.906256155
337.201499 1.672495529
337.2378845 3.440961152
339.1807636 2.870041931
351.1807636 4.920294883
353.1964136 6.517592427
359.2222345 2.543669721
361.2378845 10.1173918
365.1964136 2.12298671
379.2484492 7.837380983
403.2484492 1.860149964
405.2277138 2.667148246
421.2590139 2.534486902
43.01838972 3.348489503
51.0234751 4.44714301
53.03912516 3.018945538
57.07042529 14.72469657
67.05477522 5.951674026
79.05477522 1.944291584
81.07042529 1.81234445
85.06533991 3.307874432
137.09664 1.665294786
197.1541549 2.004572028
235.097034 2.570138206
237.112684 1.897081101
239.1283341 3.067710727
253.1439842 2.635094577
253.1803697 1.81647063
277.1439842 2.171918118
279.1596342 1.907139635
279.1960197 1.909646657
293.1752843 2.782502976
299.2011051 3.684579583
301.2167552 2.051185353
311.185849 2.584259844
317.2116698 2.613401314
317.2116698 3.188268489
319.2273199 7.50448286
335.2222345 4.04887716
337.201499 1.98468278
359.2222345 2.886637171
361.2378845 2.229520233
377.2327992 1.888427048
405.2277138 2.352649613
END IONS
BEGIN IONS
PEPMASS=233.1536059
CHARGE=1+
FILENAME=PMA_065453
UNPD_ID=UNPD159670
MOLECULAR_FORMULA=C15H20O2
SEQ=*..*
IONMODE=Positive
EXACTMASS=232.1463299
NAME=UNPD159670
SMILES=CCCCCC=CCc1ccc2OCOc2c1
INCHI=InChI=1/C15H20O2/c1-2-3-4-5-6-7-8-13-9-10-14-15(11-13)17-12-16-14/h6-7,9-11H,2-5,8,12H2,1H3/b7-6+
INCHIKEY=DXAOUCKABRGQIV-VOTSOKGWSA-N
SCANS=1
41.03912516 0.3326975007
43.05477522 0.8656749989
47.01330434 0.8242113998
55.05477522 0.328678218
57.07042529 0.850498924
71.08607535 0.8281362622
81.07042529 0.6279750616
83.08607535 1.494182113
85.10172542 1.110774089
87.11737548 0.3314278985
95.08607535 0.551718299
97.10172542 2.096594885
107.0860754 0.3810028197
109.1017254 0.5664615843
111.1173755 2.004694868
123.0446045 0.8148637696
137.0602545 0.7118851948
147.0446045 1.504503596
149.0602545 1.094472525
151.0759046 0.3324004611
161.0602545 0.8190998947
175.0759046 0.7848941904
185.1330255 0.8410153212
187.1486756 0.4718874166
189.0915547 0.7660765062
201.1279402 0.9743813587
203.1072047 0.8175214575
203.1435902 5.614948653
205.1228548 0.9095360024
217.1228548 0.5701708608
233.1541549 69.77761387
41.03912516 2.399299363
43.05477522 3.819776306
53.03912516 2.587055437
55.05477522 2.133599512
57.07042529 3.47730497
67.05477522 2.307721337
69.07042529 1.792677476
71.08607535 3.151571792
81.07042529 4.538942915
83.08607535 3.648763631
85.10172542 2.462986496
93.07042529 1.797145332
95.08607535 1.840018405
97.10172542 6.900998239
107.0860754 1.099157271
109.1017254 1.568185313
111.1173755 4.703906206
123.0446045 1.072742599
137.0602545 1.554218261
147.0446045 4.060022193
149.0602545 2.466891358
161.0602545 2.942167959
175.0759046 2.59549871
185.1330255 1.312172684
187.1486756 0.794078359
189.0915547 2.212409159
201.1279402 0.8055882001
203.1435902 5.395455542
215.1435902 0.8028752604
217.1228548 1.884409788
233.1541549 21.87235992
41.03912516 10.79823329
43.05477522 13.42288993
45.07042529 1.193368797
51.0234751 3.260680556
53.03912516 7.535061461
55.05477522 5.64389334
57.07042529 7.368429423
65.03912516 1.358378959
67.05477522 4.210611236
69.07042529 2.234735821
71.08607535 3.338963003
81.07042529 1.318333264
83.08607535 1.764875428
93.07042529 1.858887067
95.08607535 1.387382625
97.10172542 3.956917787
103.0547752 2.399377565
117.0704253 1.136881767
119.0860754 1.131177403
121.1017254 1.84890494
129.0704253 1.979521635
133.1017254 2.449746842
143.0860754 1.610052299
145.1017254 2.664903536
147.0446045 1.716251548
147.1173755 2.485816358
161.0602545 1.288952815
161.1330255 1.301351851
185.1330255 3.567718117
203.1435902 1.700272753
217.1228548 2.067428594
END IONS
BEGIN IONS
PEPMASS=227.1066557
CHARGE=1+
FILENAME=PMA_065455
UNPD_ID=UNPD159672
MOLECULAR_FORMULA=C15H14O2
SEQ=*..*
IONMODE=Positive
EXACTMASS=226.0993797
NAME=UNPD159672
SMILES=CC(=O)OCC=CC#CC#CC=CC=CC=C
INCHI=InChI=1/C15H14O2/c1-3-4-5-6-7-8-9-10-11-12-13-14-17-15(2)16/h3-7,12-13H,1,14H2,2H3/b5-4+,7-6+,13-12+
INCHIKEY=USLMUFBQLLBZGE-YAPKZDNLSA-N
SCANS=1
41.03912516 0.8961777728
43.01838972 4.390377091
53.03912516 0.6881364988
61.0289544 4.00389873
65.03912516 1.22386788
67.05477522 0.8558697826
79.05477522 0.6425552172
85.0289544 0.554366398
87.04460446 1.105058712
91.05477522 0.6156805884
99.04460446 0.5180747076
103.0547752 0.5936609098
115.0547752 0.6864053358
123.0446045 0.5180747076
127.0547752 0.7222653885
137.0391252 0.5572901798
139.0547752 2.463410328
141.0704253 1.982809177
153.0704253 0.6797958902
159.0446045 0.9307736331
161.0602545 0.6761043262
165.0704253 2.935876442
167.0860754 21.81741384
185.0602545 0.9401470376
185.09664 4.716428388
187.0759046 0.6817413022
199.0759046 0.5602638241
201.0915547 0.5904085101
209.09664 1.855297593
211.0759046 0.6175339459
227.1072047 39.98023587
41.03912516 2.199703192
43.01838972 2.303577618
51.0234751 1.863542643
53.03912516 2.744200321
61.0289544 2.73715825
65.03912516 3.479985733
67.05477522 1.949986723
75.0234751 1.747861827
77.03912516 1.465887308
79.05477522 2.428402205
89.03912516 1.780251001
91.05477522 1.539981581
99.0234751 1.822882678
101.0391252 2.585955129
103.0547752 1.456749191
113.0391252 2.383410735
115.0547752 2.227173048
123.0234751 1.378217963
123.0446045 1.04245791
125.0391252 1.384716963
127.0547752 2.86565017
137.0391252 1.061018834
139.0547752 2.539358301
157.0289544 1.764995834
159.0446045 1.220027132
165.0704253 2.426178436
167.0860754 36.60537627
183.0446045 1.493405239
185.0602545 1.134440171
185.09664 3.620342266
227.1072047 4.74710532
41.03912516 4.574787059
43.01838972 10.69361769
51.0234751 9.648355487
53.03912516 8.704179734
57.03403978 1.328142835
61.0289544 2.530696178
65.03912516 5.671696518
67.05477522 1.75914039
75.0234751 6.961369311
77.03912516 3.125583987
79.05477522 3.257363558
81.03403978 1.549635933
89.03912516 3.390436905
91.01838972 1.034609422
91.05477522 1.974882138
93.03403978 0.9510055861
99.0234751 5.541634485
99.04460446 0.8048625568
101.0391252 4.195048966
103.0547752 1.544064814
105.0340398 1.549635933
113.0391252 3.673034361
115.0547752 2.177124092
123.0234751 2.208830414
123.0446045 0.8048625568
125.0391252 1.410735083
127.0547752 3.04625731
137.0391252 1.191309039
139.0547752 1.051403475
167.0860754 2.677524848
211.0759046 0.9681693405
END IONS
BEGIN IONS
PEPMASS=639.2283465
CHARGE=1+
FILENAME=PMA_065456
UNPD_ID=UNPD159673
MOLECULAR_FORMULA=C30H38O15
SEQ=*..*
IONMODE=Positive
EXACTMASS=638.2210705
NAME=UNPD159673
SMILES=COc1cc(C=C/C(=O)OC2C(CO)OC(OCCc3ccc(O)c(O)c3)C(O)C2OC4OC(C)C(O)C(O)C4O)ccc1O
INCHI=InChI=1/C30H38O15/c1-14-23(36)24(37)25(38)30(42-14)45-28-26(39)29(41-10-9-16-3-6-17(32)19(34)11-16)43-21(13-31)27(28)44-22(35)8-5-15-4-7-18(33)20(12-15)40-2/h3-8,11-12,14,21,23-34,36-39H,9-10,13H2,1-2H3/b8-5-/t14-,21-,23-,24+,25+,26-,27-,28-,29-,30-/m1/s1
INCHIKEY=ZMYQRHSOVRDQDL-ITNPQRMPSA-N
SCANS=1
27.0234751 0.6824208829
109.0289544 1.443387934
111.0446045 0.809058342
135.0446045 0.7886335389
137.0602545 9.379463818
139.0759046 1.421757103
147.0657338 2.394903259
155.0708192 3.94370514
175.0395191 1.20896907
177.0551691 10.33328018
195.0657338 0.66039338
281.1025133 0.6959639508
283.1181633 0.6492819245
297.0974279 0.9151704552
299.1130779 2.854747601
315.1079926 2.007279393
339.1079926 1.087438249
425.144772 0.8570573912
445.1709867 5.22064598
463.1815514 2.253262745
473.144772 0.6152742363
475.1604221 8.529575015
475.1604221 3.179932139
477.1760721 0.6740746264
485.1659014 1.293105433
493.1709867 12.0225796
503.1764661 0.8502529902
607.2026808 0.6198926432
621.2183309 8.567790423
621.2183309 3.989517503
639.2288955 10.05118505
57.03403978 1.280821736
107.0496898 0.9047582086
109.0289544 0.9127524848
123.0446045 1.027865061
125.0602545 2.017347565
129.0551691 1.148291814
135.0446045 1.339995423
137.0602545 19.51919234
147.0446045 0.8541874485
147.0657338 3.171666256
149.0602545 2.132978272
155.0708192 12.38041463
177.0551691 9.75556168
249.0762985 0.8013832544
299.1130779 1.568951744
315.1079926 5.287697228
317.1236426 2.847491528
339.1079926 2.655929607
341.1236426 0.9728837726
355.1029072 0.9543576165
357.1185573 1.014754173
445.1709867 2.391203738
463.1604221 1.961843935
463.1815514 1.019508525
475.1604221 3.982714619
475.1604221 6.697562335
477.1760721 1.084034123
493.1709867 6.764357622
609.2183309 1.706959833
621.2183309 0.9645309217
621.2183309 0.8780025092
57.03403978 1.549045702
87.04460446 1.742435665
107.0496898 1.610046483
109.0289544 1.472065577
119.0496898 1.326890452
123.0446045 2.485994681
129.0551691 1.394749874
131.0708192 1.531271101
135.0446045 1.528383522
137.0602545 12.44820689
147.0657338 2.425686476
149.0602545 1.591607643
155.0708192 2.68152194
177.0551691 6.533540051
179.0344337 1.528051198
225.0762985 1.361599816
243.0868632 1.624336663
297.0974279 2.321126219
299.1130779 10.34217779
301.128728 1.481926213
313.0923425 1.284909431
315.1079926 14.75161734
317.1236426 1.614427996
339.1079926 6.07399666
341.1236426 2.340496559
445.1709867 2.202601358
459.1655074 1.475866858
475.1604221 3.103111139
475.1604221 4.118558778
493.1709867 2.022714027
621.2183309 2.031035902
END IONS
BEGIN IONS
PEPMASS=463.3206712
CHARGE=1+
FILENAME=PMA_065457
UNPD_ID=UNPD159674
MOLECULAR_FORMULA=C31H42O3
SEQ=*..*
IONMODE=Positive
EXACTMASS=462.3133952
NAME=UNPD159674
SMILES=CC(=CCCC(=CCCC(=CCCC(=CCc1cc(O)cc2C(=C(C)C)C(=O)Oc12)C)C)C)C
INCHI=InChI=1/C31H42O3/c1-21(2)11-8-12-23(5)13-9-14-24(6)15-10-16-25(7)17-18-26-19-27(32)20-28-29(22(3)4)31(33)34-30(26)28/h11,13,15,17,19-20,32H,8-10,12,14,16,18H2,1-7H3/b23-13+,24-15+,25-17+
INCHIKEY=LPJLAXYRFCLYIG-HBKYZHKXSA-N
SCANS=1
69.07042529 1.51787138
109.1017254 2.333842448
111.1173755 1.703933813
123.1173755 1.467662977
137.1330255 1.416202841
177.1643257 2.355775615
179.1799757 1.723713232
191.1799757 1.495135774
205.1956258 1.474935441
215.0708192 1.573858411
245.2269259 2.313727638
247.242576 1.723713232
257.1177694 1.42836364
259.242576 3.11759923
271.1334195 1.397427321
283.1334195 1.590669855
285.1490695 1.370256598
325.1803697 1.44114575
339.1960197 1.418368443
351.1960197 1.590669855
363.2687907 1.982848196
381.2793554 2.641972428
393.2429699 1.468449262
407.25862 1.474935441
419.25862 9.150482871
419.331391 1.422168216
421.27427 2.964712965
421.27427 4.293877281
423.2899201 2.163664146
445.3106556 2.863405245
463.3212202 35.11861046
67.05477522 3.126583179
69.07042529 4.094172332
107.0860754 3.352586587
109.1017254 2.484185384
123.1173755 3.624717311
137.1330255 2.77996989
175.1486756 3.270223798
177.1643257 2.666011758
187.1486756 2.441332176
191.1799757 4.064572747
205.1956258 3.461668178
215.0708192 2.227405338
243.2112759 3.825602554
245.2269259 2.393143289
255.2112759 2.611409556
257.1177694 2.810070322
259.242576 4.889549155
271.1334195 2.590081878
273.2582261 3.556987239
283.1334195 2.612954061
325.1803697 3.344103474
339.1960197 2.480107472
351.1960197 2.612954061
381.2793554 3.699201488
393.2429699 3.648560424
407.25862 3.461668178
419.25862 4.233304045
419.331391 2.968199427
423.2899201 3.669640919
445.3106556 3.104726746
463.3212202 3.894307034
41.03912516 1.903468897
51.0234751 3.850362728
53.03912516 6.951049976
67.05477522 8.268142773
69.07042529 4.286182344
107.0860754 2.57299675
109.1017254 2.384786475
169.0653399 3.60436467
177.1643257 4.056928553
179.1799757 1.956657983
191.1799757 3.584515052
205.1956258 3.429554355
209.09664 4.149592947
223.1122901 2.700211075
237.1279402 2.035295675
243.2112759 2.144987891
245.2269259 3.511845234
247.242576 1.956657983
257.2269259 2.427461296
273.2582261 2.046110179
281.2269259 6.252880935
359.2374906 1.901267686
361.2531407 3.10522761
363.2687907 1.922746374
377.2116698 2.826018716
379.2273199 2.841199741
393.2429699 3.102904558
407.25862 3.429554355
419.331391 2.2208208
445.3106556 1.981668661
447.2899201 2.594537727
END IONS
BEGIN IONS
PEPMASS=301.1645645
CHARGE=1+
FILENAME=PMA_065458
UNPD_ID=UNPD159675
MOLECULAR_FORMULA=C15H24O6
SEQ=*..*
IONMODE=Positive
EXACTMASS=300.1572885
NAME=UNPD159675
SMILES=CCCCCCCC(=O)OCC(O)C(O)C1=CC(=O)OC1
INCHI=InChI=1/C15H24O6/c1-2-3-4-5-6-7-13(17)21-10-12(16)15(19)11-8-14(18)20-9-11/h8,12,15-16,19H,2-7,9-10H2,1H3/t12-,15-/m1/s1
INCHIKEY=CRYYXCIYGAGGEP-IUODEOHRSA-N
SCANS=1
45.03403978 1.247123452
47.04968984 0.7472223969
83.01330434 4.870747214
83.08607535 0.6172819248
85.0289544 1.109597377
85.10172542 2.475378832
99.11737548 0.8714464612
101.0602545 0.9210510941
109.1017254 1.403622335
113.023869 6.393216117
115.0395191 0.9851406051
125.09664 1.698239929
127.1122901 11.55574605
139.0395191 2.76252928
141.0551691 1.497895564
145.1228548 3.104435684
155.0344337 1.317416046
157.0500838 11.06173271
159.0657338 0.6622700912
175.0606485 1.006600223
187.1334195 2.019626026
217.1439842 0.7730521464
223.1334195 0.8058765151
239.1283341 1.243414464
241.1439842 4.787670252
255.1596342 1.183571247
257.1752843 1.304810781
265.1439842 1.44921697
283.1545488 11.34632387
283.1545488 0.6191761558
301.1651135 18.15856819
41.03912516 1.149669889
43.05477522 1.451610521
55.01838972 1.794198448
57.07042529 1.279467774
71.08607535 1.148298734
73.0289544 4.413254195
75.04460446 4.247066109
83.01330434 6.318795815
83.08607535 1.22913314
85.0289544 2.477363712
85.10172542 5.513141223
99.11737548 4.321098843
101.0602545 2.31579901
109.1017254 2.678283188
113.023869 6.969485334
113.0602545 2.320344
115.0395191 1.253137508
125.09664 1.292018965
127.1122901 13.80960919
139.0395191 3.461783844
141.0551691 1.316284079
157.0500838 10.30369076
157.1228548 1.135893572
175.0606485 1.383552546
199.1334195 1.905751005
201.1490695 1.260014602
217.1439842 2.853440271
223.1334195 1.829113002
241.1439842 3.807809864
283.1545488 2.657083274
301.1651135 2.103807583
41.03912516 6.014606842
43.01838972 1.747131824
43.05477522 6.852188561
45.03403978 4.924453439
47.04968984 1.562492113
55.01838972 1.386910768
55.05477522 2.96901988
57.07042529 2.817217242
67.05477522 1.096723171
69.07042529 1.32942013
71.08607535 2.187698385
73.0289544 1.188308018
81.07042529 2.513718206
83.01330434 19.68381286
83.08607535 3.497078283
85.0289544 4.640965165
85.10172542 3.402111159
87.11737548 1.174986434
97.0289544 1.198609244
97.10172542 1.674114804
99.11737548 2.850724437
113.023869 3.715382245
113.0602545 2.583830027
125.09664 1.680043874
127.1122901 6.833153102
139.0395191 1.336088203
141.0551691 1.601897465
145.1228548 1.877106941
153.0915547 1.033821201
155.1072047 0.9301646677
157.0500838 3.696221312
END IONS
BEGIN IONS
PEPMASS=575.2698174
CHARGE=1+
FILENAME=PMA_065459
UNPD_ID=UNPD159676
MOLECULAR_FORMULA=C27H42O13
SEQ=*..*
IONMODE=Positive
EXACTMASS=574.2625414
NAME=UNPD159676
SMILES=CC(C)C1CC(OC2OC(CO)C(O)C(O)C2O)C(C)c3c(O)c(OC4OC(CO)C(O)C(O)C4O)c(C)cc13
INCHI=InChI=1/C27H42O13/c1-9(2)12-6-14(37-26-23(35)21(33)18(30)15(7-28)38-26)11(4)17-13(12)5-10(3)25(20(17)32)40-27-24(36)22(34)19(31)16(8-29)39-27/h5,9,11-12,14-16,18-19,21-24,26-36H,6-8H2,1-4H3/t11-,12+,14-,15-,16-,18-,19-,21+,22+,23-,24-,26-,27+/m1/s1
INCHIKEY=YRVIELBGQOBLNE-UWFLCYMHSA-N
SCANS=1
43.01838972 0.4959265928
57.07042529 0.4382589232
71.08607535 0.4703383301
73.0289544 0.5165888545
103.0395191 0.7776080499
151.0759046 0.6966615262
163.0606485 2.559615449
215.1435902 1.062662398
217.1592403 0.5739537297
231.1385048 0.9920288361
233.1541549 5.060666358
235.169805 1.371661176
249.1490695 8.100723977
251.1647196 1.092990325
311.1130779 0.496587457
313.128728 1.268020211
369.1549428 1.037220096
377.1964136 1.858134117
393.1913283 1.059703638
395.2069783 24.25486465
397.2226284 0.9305734531
403.2695786 0.4861724638
413.217543 21.14471691
417.2488431 0.5562773799
419.2644932 0.5322697691
531.2077662 0.6182080579
533.2234162 0.7216054795
539.2492371 0.7693893513
557.2598018 6.008066083
557.2598018 4.959201272
575.2703664 9.089305084
43.01838972 0.8922311253
45.03403978 0.5405536277
57.07042529 3.271366326
123.0446045 0.9733400665
129.1279402 0.7250060835
145.0500838 1.646101684
151.0759046 1.183920215
163.0606485 4.551945153
179.1072047 0.4966430435
193.1228548 0.5324723854
207.1385048 0.4593496751
233.1541549 6.982476441
235.169805 2.524360896
249.1490695 21.95225053
251.1647196 10.68299542
285.0974279 0.4943197318
291.1596342 0.5016568848
291.1807636 0.5020450965
313.128728 0.6707534336
357.1549428 1.068469059
369.1549428 0.8256446179
371.1705928 0.6623539367
377.1964136 1.048591396
383.2069783 1.477056311
395.2069783 19.11416139
397.2226284 1.528627332
413.217543 11.67899934
545.2598018 0.8161944678
557.2598018 0.7095766539
557.2598018 0.9540522771
575.2703664 0.5324854
43.01838972 2.593488789
45.03403978 0.98652561
57.07042529 1.116133894
71.01330434 0.8687625522
87.00821896 1.207460948
89.02386902 0.9816134277
103.0395191 1.363321185
145.0500838 1.409478229
147.0657338 1.228768906
151.0759046 3.103428295
163.0606485 4.870815256
165.0762985 0.8832700407
207.1385048 0.9383714527
221.1541549 2.024678019
231.1385048 1.362787205
233.1541549 8.142268815
235.169805 1.842924299
249.1490695 33.10059246
251.1647196 5.332117834
323.185849 1.495936337
339.1807636 0.9010926725
393.1913283 0.9529069213
395.2069783 11.08303427
413.217543 3.580340174
415.2331931 0.9471499914
417.2488431 1.603570792
419.2644932 1.039989032
483.2230223 0.977929763
513.233587 1.360571076
515.2492371 1.221459519
557.2598018 1.47921223
END IONS
BEGIN IONS
PEPMASS=601.2702113
CHARGE=1+
FILENAME=PMA_065463
UNPD_ID=UNPD15968
MOLECULAR_FORMULA=C25H44O16
SEQ=*..*
IONMODE=Positive
EXACTMASS=600.2629353
NAME=UNPD15968
SMILES=OCCCCCC(OC1OC(COC2OCC(O)C(O)C2O)C(O)C(O)C1OC3OC(CO)C(O)C(O)C3O)C=C
INCHI=InChI=1/C25H44O16/c1-2-11(6-4-3-5-7-26)38-25-22(41-24-21(35)18(32)16(30)13(8-27)39-24)19(33)17(31)14(40-25)10-37-23-20(34)15(29)12(28)9-36-23/h2,11-35H,1,3-10H2/t11-,12+,13+,14+,15-,16+,17+,18-,19-,20+,21+,22+,23-,24-,25+/m0/s1
INCHIKEY=QZVLTTWIHASKNB-JTAAIZKMSA-N
SCANS=1
73.0289544 0.8223619584
103.0395191 0.7875964613
109.1017254 2.498159596
113.09664 0.4615979845
125.09664 0.5940882982
127.1122901 14.43332745
129.1279402 0.6032617796
133.0500838 2.46581804
145.1228548 13.94100248
163.0606485 2.929029598
181.0712131 1.790629515
289.1651135 1.157660424
295.1029072 0.6005835978
305.1600281 1.007666944
403.1968076 1.873739362
405.2124576 1.470325438
419.1917222 0.9821691454
421.2073723 14.81195807
423.2230223 0.7733901085
433.2073723 0.4871514258
439.2179369 6.700772012
451.2179369 2.429843585
457.1557306 0.7877442988
469.2285016 0.9485753808
539.2339809 0.5194433259
565.249631 2.818700297
569.2445456 0.6437894475
583.2601957 13.46273064
583.2601957 0.9483833217
585.2394602 0.5095814769
601.2707604 5.738918532
45.03403978 0.6200995179
71.04968984 0.7092360843
73.06533991 1.013217024
85.06533991 0.5010483496
87.08098997 0.9000585759
109.1017254 2.613330171
115.0395191 0.71772128
125.09664 0.6524818823
127.1122901 23.214738
129.1279402 0.6285096297
133.0500838 3.724802692
145.0500838 1.445402636
145.1228548 19.13643411
163.0606485 2.542684354
289.1651135 2.321714529
291.1807636 0.7966228172
295.1029072 1.534650378
297.1185573 0.705114274
305.1600281 4.714027939
307.1756782 2.488527659
313.1134719 0.6354624286
403.1968076 0.9361824038
421.2073723 12.60478795
423.2230223 1.052447751
439.2179369 4.130124485
451.2179369 3.934638831
467.2128516 0.4967036838
469.2285016 1.112705185
565.249631 1.146631303
583.2601957 2.342948127
585.2394602 0.6269459537
41.03912516 1.316376061
43.01838972 1.347953669
45.03403978 1.782754043
57.03403978 1.557128937
59.04968984 1.623177248
71.04968984 2.058428982
73.0289544 1.831505251
73.06533991 2.387940861
75.04460446 1.217969023
85.06533991 1.966158343
87.08098997 2.782925679
99.08098997 1.13575221
103.0395191 1.191332565
113.09664 1.699963667
125.09664 1.451724607
127.1122901 14.31966698
133.0500838 3.834901549
145.0500838 2.279961191
145.1228548 17.21828584
147.0657338 2.000545672
161.0449984 1.161759156
163.0606485 4.131161236
289.1651135 3.731167388
293.0872571 1.281858851
295.1029072 6.066544132
305.1600281 3.607532306
421.2073723 8.43903787
439.2179369 1.50708273
509.2234162 1.35612887
539.2339809 1.689475481
583.2601957 2.023799605
END IONS